(set-info :smt-lib-version 2.6)
(set-logic ABV)
(set-info :source |
Generated by the tool Ultimate Automizer [1,2] which implements
an automata theoretic approach [3] to software verification.

This SMT script belongs to a set of SMT scripts that was generated by
applying Ultimate Automizer to benchmarks [4] from the SV-COMP 2023 [5,6].
This script may not contain all SMT commands that Ultimate Automizer
issued. In order to meet the restrictions for SMT-COMP benchmarks 
we dropped the commands for getting values (resp. models), 
unsatisfiable cores, and interpolants.

2023-03-21, Matthias Heizmann (heizmann@informatik.uni-freiburg.de)

[1] https://ultimate.informatik.uni-freiburg.de/automizer/
[2] Matthias Heizmann, Max Barth, Daniel Dietsch, Leonard Fichtner,
     Jochen Hoenicke, Dominik Klumpp, Mehdi Naouar, Tanja Schindler,
     Frank Schüssele, Andreas Podelski: Ultimate Automizer and the
     CommuHash Normal Form (Competition Contribution). TACAS 2023
[3] Matthias Heizmann, Jochen Hoenicke, Andreas Podelski: Software Model
     Checking for People Who Love Automata. CAV 2013
[4] https://github.com/sosy-lab/sv-benchmarks
[5] Dirk Beyer: Competition on Software Verification and
     Witness Validation: SV-COMP 2023.  TACAS 2023
[6] https://sv-comp.sosy-lab.org/2023/
|)
(set-info :license "https://creativecommons.org/licenses/by/4.0/")
(set-info :category "industrial")
(set-info :status unknown)
(declare-fun ~unnamed0~0~P_ALL () (_ BitVec 32))
(declare-fun ~unnamed0~0~P_PID () (_ BitVec 32))
(declare-fun ~unnamed0~0~P_PGID () (_ BitVec 32))
(assert (= ~unnamed0~0~P_ALL (_ bv0 32)))
(assert (= ~unnamed0~0~P_PID (_ bv1 32)))
(assert (= (_ bv2 32) ~unnamed0~0~P_PGID))
(declare-fun |#length| () (Array (_ BitVec 64) (_ BitVec 64)))
(declare-fun |ULTIMATE.start_main_~tree~0#1.base| () (_ BitVec 64))
(declare-fun |#memory_$Pointer$.offset| () (Array (_ BitVec 64) (Array (_ BitVec 64) (_ BitVec 64))))
(declare-fun |#valid| () (Array (_ BitVec 64) (_ BitVec 1)))
(declare-fun |#memory_$Pointer$.base| () (Array (_ BitVec 64) (Array (_ BitVec 64) (_ BitVec 64))))
(declare-fun |ULTIMATE.start_main_~tree~0#1.offset| () (_ BitVec 64))
(assert (forall ((|v_ULTIMATE.start_main_~tmpList~0#1.base_25| (_ BitVec 64))) (or (forall ((v_ArrVal_492 (_ BitVec 64)) (v_ArrVal_494 (Array (_ BitVec 64) (_ BitVec 64))) (v_ArrVal_493 (Array (_ BitVec 64) (_ BitVec 64)))) (let ((.cse1 (bvadd |ULTIMATE.start_main_~tree~0#1.offset| (_ bv16 64)))) (let ((.cse0 (store |#memory_$Pointer$.offset| |v_ULTIMATE.start_main_~tmpList~0#1.base_25| v_ArrVal_493)) (.cse2 (select (select (store |#memory_$Pointer$.base| |v_ULTIMATE.start_main_~tmpList~0#1.base_25| v_ArrVal_494) |ULTIMATE.start_main_~tree~0#1.base|) .cse1))) (or (not (bvule (bvadd (_ bv8 64) (select (select .cse0 |ULTIMATE.start_main_~tree~0#1.base|) .cse1)) (select (store |#length| |v_ULTIMATE.start_main_~tmpList~0#1.base_25| v_ArrVal_492) .cse2))) (forall ((v_prenex_2 (Array (_ BitVec 64) (_ BitVec 64)))) (let ((.cse3 (select (select (store .cse0 .cse2 v_prenex_2) |ULTIMATE.start_main_~tree~0#1.base|) .cse1))) (bvule .cse3 (bvadd (_ bv8 64) .cse3)))))))) (not (= (_ bv0 1) (select |#valid| |v_ULTIMATE.start_main_~tmpList~0#1.base_25|))))))
(assert (not (forall ((|v_ULTIMATE.start_main_~tmpList~0#1.base_25| (_ BitVec 64))) (or (forall ((v_ArrVal_492 (_ BitVec 64)) (v_ArrVal_494 (Array (_ BitVec 64) (_ BitVec 64))) (v_ArrVal_493 (Array (_ BitVec 64) (_ BitVec 64)))) (let ((.cse4 (store |#memory_$Pointer$.base| |v_ULTIMATE.start_main_~tmpList~0#1.base_25| v_ArrVal_494)) (.cse2 (bvadd |ULTIMATE.start_main_~tree~0#1.offset| (_ bv16 64)))) (let ((.cse0 (store |#memory_$Pointer$.offset| |v_ULTIMATE.start_main_~tmpList~0#1.base_25| v_ArrVal_493)) (.cse3 (store |#length| |v_ULTIMATE.start_main_~tmpList~0#1.base_25| v_ArrVal_492)) (.cse1 (select (select .cse4 |ULTIMATE.start_main_~tree~0#1.base|) .cse2))) (or (forall ((|v_ULTIMATE.start_main_~tmpList~0#1.base_24| (_ BitVec 64))) (or (forall ((v_ArrVal_498 (_ BitVec 64)) (v_ArrVal_496 (Array (_ BitVec 64) (_ BitVec 64))) (v_ArrVal_497 (Array (_ BitVec 64) (_ BitVec 64)))) (bvule (bvadd (select (select (store .cse0 .cse1 v_ArrVal_496) |ULTIMATE.start_main_~tree~0#1.base|) .cse2) (_ bv8 64)) (select (store .cse3 |v_ULTIMATE.start_main_~tmpList~0#1.base_24| v_ArrVal_498) (select (select (store .cse4 .cse1 v_ArrVal_497) |ULTIMATE.start_main_~tree~0#1.base|) .cse2)))) (= .cse1 |v_ULTIMATE.start_main_~tmpList~0#1.base_24|))) (not (bvule (bvadd (_ bv8 64) (select (select .cse0 |ULTIMATE.start_main_~tree~0#1.base|) .cse2)) (select .cse3 .cse1))))))) (not (= (_ bv0 1) (select |#valid| |v_ULTIMATE.start_main_~tmpList~0#1.base_25|)))))))
(check-sat)
(exit)
